3 
4  45 
5  05 26 39 56 
6  12 28 43 58 
7  13 28 43 58 
8  13 28 43 58 
9  14 29 44 59 
10  14 28 43 58 
11  13 28 43 58 
12  13 28 43 58 
13  13 28 43 58 
14  13 28 43 58 
15  13 28 43 58 
16  13 28 43 58 
17  13 28 43 58 
18  13 28 43 58 
19  13 28 43 58 
20  16 31 46 
21  00 16 31 46 
22  01 16 31 45 
23  03 
0 
